 Code  3233
 Dimension, Fixed Cost
   100        3000
 Facility, Client, Transportation Cost
     1        3           0
     1        4           3
     1       23           4
     1       32           2
     1       37           0
     1       41           0
     1       59           0
     1       60           4
     1       70           3
     1       74           2
     2       12           2
     2       19           2
     2       22           2
     2       36           0
     2       37           1
     2       66           2
     2       73           2
     2       78           2
     2       83           2
     2       89           2
     3        6           0
     3       11           0
     3       12           1
     3       20           3
     3       22           4
     3       30           4
     3       32           1
     3       34           0
     3       62           0
     3       63           4
     4        1           1
     4       20           2
     4       42           3
     4       46           0
     4       49           4
     4       62           4
     4       64           3
     4       73           1
     4       75           4
     4       80           2
     5       16           3
     5       33           2
     5       39           4
     5       64           0
     5       65           1
     5       75           1
     5       77           2
     5       89           0
     5       92           2
     5       95           3
     6       15           2
     6       38           0
     6       40           1
     6       56           1
     6       58           2
     6       66           0
     6       69           1
     6       71           4
     6       81           3
     6       85           3
     7       34           3
     7       47           0
     7       52           2
     7       54           2
     7       56           2
     7       68           0
     7       73           0
     7       87           2
     7       91           1
     7       95           1
     8       26           1
     8       27           2
     8       47           0
     8       72           1
     8       74           3
     8       79           1
     8       92           0
     8       98           2
     8       99           2
     8      100           0
     9        3           2
     9       17           1
     9       69           1
     9       71           4
     9       73           4
     9       80           4
     9       94           4
     9       95           4
     9       96           1
     9       99           4
    10       10           2
    10       20           1
    10       24           4
    10       55           2
    10       68           1
    10       74           1
    10       83           1
    10       90           2
    10       92           1
    10       95           2
    11       12           1
    11       19           2
    11       32           1
    11       40           1
    11       42           3
    11       43           3
    11       46           3
    11       58           0
    11       71           3
    11       77           4
    12        8           3
    12       12           2
    12       62           0
    12       64           3
    12       67           1
    12       71           4
    12       75           3
    12       80           0
    12       82           0
    12       99           2
    13        7           1
    13       17           0
    13       20           2
    13       30           2
    13       38           0
    13       42           2
    13       44           1
    13       47           1
    13       62           1
    13       63           4
    14       11           3
    14       12           2
    14       16           0
    14       23           3
    14       26           2
    14       38           0
    14       39           1
    14       40           1
    14       50           1
    14       58           4
    15       27           0
    15       36           4
    15       42           0
    15       51           2
    15       55           3
    15       61           1
    15       63           0
    15       82           1
    15       83           4
    15       87           2
    16        2           2
    16       22           0
    16       36           1
    16       53           4
    16       64           3
    16       81           2
    16       84           0
    16       88           1
    16       96           4
    16       97           2
    17        4           2
    17        6           1
    17       14           0
    17       25           2
    17       34           1
    17       38           0
    17       50           2
    17       55           3
    17       56           2
    17       67           3
    18       11           1
    18       28           4
    18       32           3
    18       33           4
    18       75           1
    18       84           1
    18       94           0
    18       95           4
    18       97           4
    18       98           4
    19       11           4
    19       12           0
    19       16           2
    19       21           0
    19       24           4
    19       35           0
    19       40           0
    19       45           1
    19       51           4
    19       52           4
    20       47           0
    20       58           4
    20       61           4
    20       67           2
    20       78           0
    20       85           0
    20       86           2
    20       89           2
    20       94           3
    20       96           1
    21        8           3
    21       10           3
    21       24           3
    21       27           4
    21       29           0
    21       43           3
    21       48           2
    21       49           4
    21       55           0
    21       87           2
    22       21           3
    22       36           0
    22       37           1
    22       39           1
    22       47           4
    22       55           2
    22       56           3
    22       74           0
    22       75           0
    22       78           3
    23        8           3
    23       32           1
    23       47           1
    23       63           1
    23       76           1
    23       80           1
    23       81           3
    23       85           3
    23       86           0
    23       91           1
    24       10           3
    24       12           0
    24       27           1
    24       54           0
    24       57           0
    24       74           3
    24       83           3
    24       93           4
    24       94           2
    24       95           4
    25        1           2
    25        2           4
    25        4           0
    25        5           1
    25       14           2
    25       18           1
    25       27           1
    25       29           3
    25       30           0
    25       33           1
    26        3           3
    26        5           3
    26       21           0
    26       26           3
    26       32           1
    26       34           1
    26       41           0
    26       57           4
    26       66           2
    26       70           0
    27        4           2
    27        5           0
    27        9           4
    27       17           3
    27       29           0
    27       31           4
    27       35           3
    27       46           1
    27       60           2
    27       63           2
    28        1           4
    28       15           4
    28       21           0
    28       37           3
    28       38           0
    28       42           3
    28       55           0
    28       71           2
    28       74           3
    28       79           0
    29        9           4
    29       13           3
    29       19           0
    29       33           2
    29       37           0
    29       45           1
    29       48           4
    29       50           0
    29       64           3
    29       85           1
    30        5           4
    30       20           3
    30       31           2
    30       45           3
    30       46           4
    30       51           0
    30       60           2
    30       66           2
    30       68           2
    30       69           2
    31       10           4
    31       16           3
    31       34           0
    31       45           4
    31       54           3
    31       76           1
    31       82           2
    31       91           0
    31       92           3
    31       97           1
    32        3           4
    32        7           0
    32       10           4
    32       15           2
    32       25           1
    32       30           4
    32       31           2
    32       38           2
    32       50           1
    32       51           1
    33        3           3
    33        7           0
    33       13           2
    33       17           3
    33       26           2
    33       27           4
    33       45           0
    33       50           0
    33       59           2
    33       67           3
    34        1           0
    34        8           3
    34       23           0
    34       27           3
    34       39           0
    34       43           1
    34       67           1
    34       68           2
    34       79           3
    34       82           2
    35       15           2
    35       28           4
    35       33           3
    35       44           1
    35       60           0
    35       63           3
    35       81           2
    35       82           2
    35       88           4
    35       89           3
    36        1           1
    36        2           0
    36        3           3
    36       29           3
    36       52           2
    36       54           3
    36       69           2
    36       72           1
    36       83           3
    36       85           0
    37       16           0
    37       32           0
    37       35           0
    37       36           0
    37       54           2
    37       78           2
    37       80           4
    37       84           1
    37       93           3
    37       94           1
    38       10           1
    38       14           2
    38       25           0
    38       65           3
    38       70           1
    38       78           4
    38       81           0
    38       86           4
    38       91           0
    38       93           2
    39        1           0
    39       10           3
    39       11           3
    39       14           0
    39       30           4
    39       41           3
    39       44           1
    39       45           0
    39       51           4
    39       61           4
    40        9           4
    40       18           1
    40       25           1
    40       28           1
    40       57           4
    40       58           1
    40       63           4
    40       70           1
    40       76           3
    40       78           1
    41        3           1
    41       16           4
    41       18           0
    41       20           3
    41       24           4
    41       31           4
    41       41           0
    41       43           3
    41       50           1
    41       53           4
    42       15           1
    42       31           0
    42       43           2
    42       65           3
    42       77           2
    42       81           1
    42       96           0
    42       97           0
    42       98           3
    42      100           0
    43        6           4
    43       18           0
    43       28           1
    43       46           2
    43       51           1
    43       52           2
    43       54           3
    43       71           1
    43       72           1
    43       73           0
    44        6           3
    44       10           2
    44       21           4
    44       25           3
    44       26           4
    44       28           3
    44       42           2
    44       56           1
    44       89           4
    44       90           2
    45        6           1
    45       26           0
    45       32           1
    45       33           3
    45       45           1
    45       51           0
    45       52           2
    45       57           0
    45       59           2
    45       60           0
    46        7           4
    46       19           4
    46       21           1
    46       36           1
    46       40           1
    46       56           0
    46       76           0
    46       82           2
    46       88           1
    46       90           2
    47        2           3
    47       17           4
    47       19           1
    47       23           3
    47       39           0
    47       40           0
    47       77           0
    47       88           0
    47       92           2
    47       93           1
    48        8           0
    48       25           2
    48       36           1
    48       44           0
    48       46           1
    48       53           2
    48       55           2
    48       57           3
    48       68           1
    48       71           1
    49        6           4
    49       18           1
    49       43           3
    49       49           0
    49       54           2
    49       68           3
    49       75           3
    49       77           2
    49       85           1
    49       87           0
    50        4           1
    50       11           3
    50       29           4
    50       36           2
    50       38           3
    50       39           2
    50       61           1
    50       62           0
    50       76           0
    50       83           4
    51       14           2
    51       29           4
    51       35           1
    51       44           4
    51       55           3
    51       57           0
    51       76           2
    51       94           2
    51       98           2
    51      100           4
    52        2           2
    52       12           2
    52       20           4
    52       59           2
    52       62           0
    52       73           4
    52       75           4
    52       91           4
    52       93           2
    52       94           1
    53        3           0
    53       14           2
    53       49           4
    53       56           0
    53       57           3
    53       61           0
    53       79           2
    53       90           3
    53       92           3
    53       93           3
    54        5           3
    54       11           2
    54       13           0
    54       29           2
    54       30           0
    54       31           3
    54       33           1
    54       41           3
    54       48           0
    54       72           3
    55        5           4
    55        7           1
    55       23           3
    55       47           0
    55       67           4
    55       74           3
    55       78           2
    55       87           2
    55       88           3
    55       91           2
    56        2           1
    56        4           1
    56       13           0
    56       27           1
    56       28           0
    56       57           0
    56       61           0
    56       77           1
    56       90           3
    56       98           2
    57       33           1
    57       41           4
    57       53           4
    57       65           3
    57       70           3
    57       73           3
    57       87           1
    57       96           0
    57       99           0
    57      100           1
    58        5           0
    58       39           0
    58       42           3
    58       51           0
    58       60           1
    58       61           4
    58       67           0
    58       70           3
    58       89           1
    58       90           2
    59        1           1
    59       22           0
    59       46           3
    59       48           0
    59       49           2
    59       77           0
    59       78           3
    59       85           4
    59       86           0
    59       87           4
    60        8           0
    60       20           2
    60       28           0
    60       31           4
    60       45           0
    60       48           0
    60       60           0
    60       61           2
    60       68           0
    60       73           4
    61       15           0
    61       37           0
    61       44           4
    61       47           4
    61       50           2
    61       65           1
    61       72           2
    61       75           4
    61       88           4
    61       89           1
    62       13           2
    62       41           2
    62       63           2
    62       64           3
    62       82           1
    62       83           0
    62       95           2
    62       98           3
    62       99           3
    62      100           4
    63        8           0
    63       19           0
    63       29           0
    63       37           0
    63       41           0
    63       43           4
    63       49           2
    63       54           3
    63       68           4
    63       92           4
    64       32           2
    64       59           4
    64       91           4
    64       93           2
    64       94           4
    64       96           2
    64       97           0
    64       98           3
    64       99           1
    64      100           1
    65        4           1
    65        8           3
    65       38           3
    65       49           0
    65       67           2
    65       68           2
    65       69           4
    65       86           4
    65       87           2
    65       94           1
    66        5           2
    66        7           2
    66       28           3
    66       42           1
    66       47           4
    66       62           2
    66       90           1
    66       91           0
    66       95           3
    66      100           2
    67        2           4
    67       16           0
    67       17           4
    67       21           3
    67       22           4
    67       33           3
    67       43           1
    67       60           3
    67       65           3
    67       66           4
    68        4           3
    68       13           2
    68       33           3
    68       49           1
    68       52           2
    68       79           1
    68       88           0
    68       94           0
    68       97           1
    68       99           2
    69       17           0
    69       28           1
    69       39           1
    69       75           1
    69       78           1
    69       86           2
    69       97           1
    69       98           2
    69       99           1
    69      100           3
    70        9           3
    70       11           3
    70       13           2
    70       24           0
    70       39           2
    70       40           1
    70       45           0
    70       53           0
    70       70           0
    70       78           1
    71       17           0
    71       18           3
    71       19           3
    71       23           4
    71       27           0
    71       37           1
    71       40           0
    71       74           0
    71       76           2
    71       79           4
    72        2           2
    72        6           3
    72       10           4
    72       16           3
    72       22           2
    72       25           0
    72       34           2
    72       35           0
    72       44           1
    72       54           4
    73       22           2
    73       23           0
    73       44           4
    73       52           1
    73       53           4
    73       58           0
    73       61           0
    73       64           3
    73       84           3
    73       87           4
    74       12           0
    74       25           0
    74       37           1
    74       58           3
    74       74           4
    74       76           3
    74       80           1
    74       86           2
    74       93           4
    74       95           1
    75        2           1
    75       12           3
    75       14           4
    75       25           2
    75       30           4
    75       44           2
    75       52           3
    75       79           3
    75       84           2
    75       89           2
    76        7           1
    76        8           3
    76       11           2
    76       14           0
    76       15           4
    76       30           1
    76       48           2
    76       53           0
    76       69           3
    76       86           4
    77        9           1
    77       44           1
    77       52           1
    77       59           3
    77       85           1
    77       96           4
    77       97           0
    77       98           4
    77       99           2
    77      100           4
    78        8           3
    78        9           1
    78       13           1
    78       20           3
    78       48           2
    78       63           2
    78       67           2
    78       69           2
    78       73           3
    78       77           1
    79        5           1
    79       18           0
    79       49           4
    79       57           3
    79       58           2
    79       66           2
    79       68           1
    79       69           0
    79       75           0
    79       80           2
    80        9           3
    80       24           1
    80       25           2
    80       29           4
    80       47           0
    80       51           1
    80       54           0
    80       57           2
    80       86           0
    80       90           1
    81       14           1
    81       15           3
    81       26           2
    81       58           2
    81       62           1
    81       77           2
    81       88           0
    81       96           2
    81       97           0
    81       98           1
    82        3           1
    82       14           3
    82       17           0
    82       34           2
    82       48           3
    82       60           1
    82       64           2
    82       69           3
    82       70           2
    82       76           0
    83        4           2
    83        6           4
    83       18           0
    83       24           1
    83       35           3
    83       38           1
    83       61           3
    83       67           4
    83       79           2
    83       88           2
    84       22           4
    84       31           4
    84       55           0
    84       71           1
    84       72           3
    84       76           0
    84       77           4
    84       80           0
    84       89           3
    84       96           0
    85        1           0
    85        3           1
    85        6           3
    85        9           1
    85       19           2
    85       21           3
    85       22           0
    85       30           3
    85       34           3
    85       38           1
    86        1           2
    86       10           0
    86       21           3
    86       35           4
    86       42           1
    86       43           3
    86       46           4
    86       65           3
    86       66           1
    86       83           2
    87        6           1
    87       18           3
    87       46           4
    87       50           3
    87       52           2
    87       59           4
    87       60           2
    87       65           4
    87       69           1
    87       72           0
    88       15           3
    88       43           4
    88       51           1
    88       73           3
    88       82           3
    88       90           0
    88       92           0
    88       96           3
    88       99           2
    88      100           2
    89        9           3
    89       27           4
    89       31           2
    89       64           2
    89       66           0
    89       81           2
    89       83           1
    89       86           4
    89       88           2
    89       90           3
    90       23           3
    90       26           2
    90       36           0
    90       48           1
    90       50           0
    90       65           0
    90       66           2
    90       80           4
    90       81           4
    90       82           0
    91        7           3
    91       24           3
    91       29           2
    91       35           1
    91       37           2
    91       41           1
    91       49           4
    91       53           4
    91       59           3
    91       64           3
    92        5           2
    92        7           3
    92       15           4
    92       41           0
    92       46           4
    92       53           3
    92       55           2
    92       70           2
    92       71           3
    92       79           0
    93       39           0
    93       53           2
    93       71           4
    93       72           1
    93       81           3
    93       84           0
    93       91           1
    93       93           2
    93       95           3
    93       97           2
    94        1           2
    94       26           1
    94       31           2
    94       34           1
    94       40           2
    94       50           3
    94       56           0
    94       62           3
    94       63           4
    94       66           4
    95       13           2
    95       19           1
    95       23           1
    95       24           4
    95       26           3
    95       70           0
    95       83           3
    95       84           1
    95       87           0
    95       92           2
    96        7           0
    96       20           1
    96       34           3
    96       40           0
    96       58           4
    96       59           3
    96       72           2
    96       74           0
    96       81           1
    96       84           2
    97        4           1
    97        9           4
    97       19           0
    97       24           2
    97       35           3
    97       48           3
    97       59           2
    97       62           2
    97       84           4
    97       85           2
    98        2           3
    98       11           0
    98       21           2
    98       35           2
    98       72           3
    98       84           4
    98       85           0
    98       91           1
    98       92           0
    98       93           2
    99       16           3
    99       22           4
    99       23           0
    99       28           2
    99       32           3
    99       36           1
    99       42           1
    99       56           0
    99       65           2
    99       80           3
   100       13           2
   100       16           1
   100       17           1
   100       18           2
   100       30           1
   100       45           0
   100       56           0
   100       79           2
   100       82           4
   100       89           2
